units	lj

dimension 3
boundary p p p

atom_style angle
pair_style lj96/cut 1.12246
pair_modify shift yes
bond_style hybrid harmonic fene
angle_style harmonic

special_bonds lj 0.0 1.0 1.0 coul 0.0 1.0 1.0

read_data data.Chromatin

bond_coeff 1 fene 5.0	2.0	1.0	1.0
bond_coeff 2 fene 30.0	1.5	1.0	1.0
bond_coeff 3 harmonic 10.0	1.5

pair_coeff	* * 1.0 1.0 1.12246
pair_coeff      1 5 2.20 1.0 2.5
pair_coeff      1 6 2.20 1.0 2.5
pair_coeff      1 7 2.20 1.0 2.5
pair_coeff      1 8 2.20 1.0 2.5
pair_coeff      1 4 0.75 1.0 2.5
pair_coeff      1 2 0.75 1.0 2.5
pair_coeff      4 4 1.10 1.0 2.5
pair_coeff      4 6 1.10 1.0 2.5

timestep 0.001

angle_coeff 1 1.0 180.0

neighbor 0.4 bin
neigh_modify delay 10

group	      dna  type 2:8
group         D  type 1
group         all  type 1:8


thermo_style	multi
thermo          500

minimize      0.0001 0.000001 1000 10000

fix	      1 all nve
fix           2 all langevin 1.0 1.0 0.1 7213981

velocity dna create 1 428420409 rot yes dist gaussian

dump          1 all atom 1000 dump.initial
dump_modify 1 scale no

run         30000

write_data    data.minimized
